min: c;

c = 3.51027241815015 * u4_t1_h1 + 3.03810039254964 * u4_t1_h2 + 2.96401446115605 * u4_t1_h3 + 3.56435134228762 * u4_t1_h4 + 3.56435134228762 * u4_t10_h4 + 3.90570031817197 * u4_t1_h5 + 3.90570031817197 * u4_t10_h5 + 3.94496280764973 * u4_t1_h6 + 3.94496280764973 * u4_t10_h6 + 4.41371880016406 * u4_t1_h7 + 4.41371880016406 * u4_t10_h7 + 5.25072364470154 * u4_t1_h8 + 5.25072364470154 * u4_t9_h8 + 5.25072364470154 * u4_t10_h8 + 4.80538001913112 * u4_t9_h9 + 4.80538001913112 * u4_t10_h9 + 5.65363694489972 * u4_t9_h10 + 5.65363694489972 * u4_t10_h10 + 4.02525276696594 * u4_t2_h11 + 4.02525276696594 * u4_t4_h11 + 4.02525276696594 * u4_t9_h11 + 4.02525276696594 * u4_t10_h11 + 6.56005863858866 * u4_t2_h12 + 6.56005863858866 * u4_t3_h12 + 6.56005863858866 * u4_t4_h12 + 6.56005863858866 * u4_t8_h12 + 6.56005863858866 * u4_t9_h12 + 6.56005863858866 * u4_t10_h12 + 4.06930486469513 * u4_t2_h13 + 4.06930486469513 * u4_t3_h13 + 4.06930486469513 * u4_t4_h13 + 4.06930486469513 * u4_t8_h13 + 4.06930486469513 * u4_t9_h13 + 5.84421507283807 * u4_t2_h14 + 5.84421507283807 * u4_t3_h14 + 5.84421507283807 * u4_t4_h14 + 5.84421507283807 * u4_t8_h14 + 5.84421507283807 * u4_t9_h14 + 6.06226429657942 * u4_t2_h15 + 6.06226429657942 * u4_t3_h15 + 6.06226429657942 * u4_t4_h15 + 6.06226429657942 * u4_t8_h15 + 6.06226429657942 * u4_t9_h15 + 5.65812153643335 * u4_t2_h16 + 5.65812153643335 * u4_t3_h16 + 5.65812153643335 * u4_t4_h16 + 5.65812153643335 * u4_t5_h16 + 5.65812153643335 * u4_t8_h16 + 5.65812153643335 * u4_t9_h16 + 6.66731117626041 * u4_t2_h17 + 6.66731117626041 * u4_t3_h17 + 6.66731117626041 * u4_t5_h17 + 6.66731117626041 * u4_t8_h17 + 6.66731117626041 * u4_t9_h17 + 6.14461568006626 * u4_t2_h18 + 6.14461568006626 * u4_t3_h18 + 6.14461568006626 * u4_t5_h18 + 6.14461568006626 * u4_t8_h18 + 6.14461568006626 * u4_t9_h18 + 5.22742085817324 * u4_t2_h19 + 5.22742085817324 * u4_t3_h19 + 5.22742085817324 * u4_t6_h19 + 5.22742085817324 * u4_t8_h19 + 5.22742085817324 * u4_t9_h19 + 5.29413514377261 * u4_t2_h20 + 5.29413514377261 * u4_t6_h20 + 5.29413514377261 * u4_t9_h20 + 5.57752776441896 * u4_t6_h21 + 5.25150746395772 * u4_t6_h22 + 5.25150746395772 * u4_t7_h22 + 5.90280059559634 * u4_t6_h23 + 5.90280059559634 * u4_t7_h23;
0 <= u4_t1_h1 <= 1;
0 <= u4_t1_h2 <= 1;
0 <= u4_t1_h3 <= 1;
0 <= u4_t1_h4 <= 1;
0 <= u4_t1_h5 <= 1;
0 <= u4_t1_h6 <= 1;
0 <= u4_t1_h7 <= 1;
0 <= u4_t1_h8 <= 1;
u4_t1_h1 + u4_t1_h2 + u4_t1_h3 + u4_t1_h4 + u4_t1_h5 + u4_t1_h6 + u4_t1_h7 + u4_t1_h8 = 1;
0 <= u4_t2_h11 <= 1;
0 <= u4_t2_h12 <= 1;
0 <= u4_t2_h13 <= 1;
0 <= u4_t2_h14 <= 1;
0 <= u4_t2_h15 <= 1;
0 <= u4_t2_h16 <= 1;
0 <= u4_t2_h17 <= 1;
0 <= u4_t2_h18 <= 1;
0 <= u4_t2_h19 <= 1;
0 <= u4_t2_h20 <= 1;
u4_t2_h11 + u4_t2_h12 + u4_t2_h13 + u4_t2_h14 + u4_t2_h15 + u4_t2_h16 + u4_t2_h17 + u4_t2_h18 + u4_t2_h19 + u4_t2_h20 = 2;
0 <= u4_t3_h12 <= 1;
0 <= u4_t3_h13 <= 1;
0 <= u4_t3_h14 <= 1;
0 <= u4_t3_h15 <= 1;
0 <= u4_t3_h16 <= 1;
0 <= u4_t3_h17 <= 1;
0 <= u4_t3_h18 <= 1;
0 <= u4_t3_h19 <= 1;
u4_t3_h12 + u4_t3_h13 + u4_t3_h14 + u4_t3_h15 + u4_t3_h16 + u4_t3_h17 + u4_t3_h18 + u4_t3_h19 = 3;
0 <= u4_t4_h11 <= 1;
0 <= u4_t4_h12 <= 1;
0 <= u4_t4_h13 <= 1;
0 <= u4_t4_h14 <= 1;
0 <= u4_t4_h15 <= 1;
0 <= u4_t4_h16 <= 1;
u4_t4_h11 + u4_t4_h12 + u4_t4_h13 + u4_t4_h14 + u4_t4_h15 + u4_t4_h16 = 3;
0 <= u4_t5_h16 <= 1;
0 <= u4_t5_h17 <= 1;
0 <= u4_t5_h18 <= 1;
u4_t5_h16 + u4_t5_h17 + u4_t5_h18 = 1;
0 <= u4_t6_h19 <= 1;
0 <= u4_t6_h20 <= 1;
0 <= u4_t6_h21 <= 1;
0 <= u4_t6_h22 <= 1;
0 <= u4_t6_h23 <= 1;
u4_t6_h19 + u4_t6_h20 + u4_t6_h21 + u4_t6_h22 + u4_t6_h23 = 3;
0 <= u4_t7_h22 <= 1;
0 <= u4_t7_h23 <= 1;
u4_t7_h22 + u4_t7_h23 = 1;
0 <= u4_t8_h12 <= 1;
0 <= u4_t8_h13 <= 1;
0 <= u4_t8_h14 <= 1;
0 <= u4_t8_h15 <= 1;
0 <= u4_t8_h16 <= 1;
0 <= u4_t8_h17 <= 1;
0 <= u4_t8_h18 <= 1;
0 <= u4_t8_h19 <= 1;
u4_t8_h12 + u4_t8_h13 + u4_t8_h14 + u4_t8_h15 + u4_t8_h16 + u4_t8_h17 + u4_t8_h18 + u4_t8_h19 = 2;
0 <= u4_t9_h8 <= 1;
0 <= u4_t9_h9 <= 1;
0 <= u4_t9_h10 <= 1;
0 <= u4_t9_h11 <= 1;
0 <= u4_t9_h12 <= 1;
0 <= u4_t9_h13 <= 1;
0 <= u4_t9_h14 <= 1;
0 <= u4_t9_h15 <= 1;
0 <= u4_t9_h16 <= 1;
0 <= u4_t9_h17 <= 1;
0 <= u4_t9_h18 <= 1;
0 <= u4_t9_h19 <= 1;
0 <= u4_t9_h20 <= 1;
u4_t9_h8 + u4_t9_h9 + u4_t9_h10 + u4_t9_h11 + u4_t9_h12 + u4_t9_h13 + u4_t9_h14 + u4_t9_h15 + u4_t9_h16 + u4_t9_h17 + u4_t9_h18 + u4_t9_h19 + u4_t9_h20 = 2;
0 <= u4_t10_h4 <= 1;
0 <= u4_t10_h5 <= 1;
0 <= u4_t10_h6 <= 1;
0 <= u4_t10_h7 <= 1;
0 <= u4_t10_h8 <= 1;
0 <= u4_t10_h9 <= 1;
0 <= u4_t10_h10 <= 1;
0 <= u4_t10_h11 <= 1;
0 <= u4_t10_h12 <= 1;
u4_t10_h4 + u4_t10_h5 + u4_t10_h6 + u4_t10_h7 + u4_t10_h8 + u4_t10_h9 + u4_t10_h10 + u4_t10_h11 + u4_t10_h12 = 2;
